NAME          ClpDefau  FREE
ROWS
 N  OBJROW
 G  HG1_R1
 G  HG1_R3
 G  HG1_R5
 G  HG1_R7
 G  HG1_R9
 G  HG1_R11
 G  HG1_R13
 G  HG1_R15
 G  HG1_R17
 G  HG1_R19
 G  HG2_R1
 G  HG2_R3
 G  HG2_R5
 G  HG2_R7
 G  HG2_R9
 G  HG2_R11
 G  HG2_R13
 G  HG2_R15
 G  HG2_R17
 G  HG2_R19
 G  VG1_R1
 G  VG1_R3
 G  VG1_R5
 G  VG1_R7
 G  VG1_R9
 G  VG1_R11
 G  VG1_R13
 G  VG1_R15
 G  VG1_R17
 G  VG1_R19
 L  WL_L1_R07_C27
 L  WL_L1_R11_C27
 L  WL_L1_R15_C27
 G  GREATER_SUM
COLUMNS
    W1 OBJROW 1.          
    W1 HG1_R1    -1.571e-7
    W1 HG1_R3    -1.565e-7
    W1 HG1_R5    -1.552e-7
    W1 HG1_R7   -1.5315e-7
    W1 HG1_R9   -1.5015e-7
    W1 HG1_R11   -1.4665e-7
    W1 HG1_R13     -1.43e-7
    W1 HG1_R15   -1.3995e-7
    W1 HG1_R17   -1.3715e-7
    W1 HG1_R19    -1.357e-7
    W1 HG2_R1     -1.56e-7
    W1 HG2_R3   -1.5545e-7
    W1 HG2_R5   -1.5415e-7
    W1 HG2_R7   -1.5185e-7
    W1 HG2_R9   -1.4915e-7
    W1 HG2_R11    -1.457e-7
    W1 HG2_R13   -1.4205e-7
    W1 HG2_R15   -1.3835e-7
    W1 HG2_R17    -1.362e-7
    W1 HG2_R19    -1.348e-7
    W1 VG1_R1   -1.7242e-6
    W1 VG1_R3   -1.7186e-6
    W1 VG1_R5   -1.7088e-6
    W1 VG1_R7   -1.7034e-6
    W1 VG1_R9    -1.648e-6
    W1 VG1_R11   -1.6106e-6
    W1 VG1_R13   -1.5858e-6
    W1 VG1_R15   -1.6076e-6
    W1 VG1_R17   -1.5248e-6
    W1 VG1_R19     -1.49e-6
    W1 WL_L1_R07_C27 -0.00012004 
    W1 WL_L1_R11_C27 -0.00011572 
    W1 WL_L1_R15_C27 -0.00010782 
    W1 GREATER_SUM 1.          
    W2 OBJROW 1.          
    W2 HG1_R1   -1.4685e-7
    W2 HG1_R3   -1.4725e-7
    W2 HG1_R5   -1.4805e-7
    W2 HG1_R7    -1.489e-7
    W2 HG1_R9   -1.4915e-7
    W2 HG1_R11    -1.487e-7
    W2 HG1_R13    -1.475e-7
    W2 HG1_R15    -1.461e-7
    W2 HG1_R17    -1.443e-7
    W2 HG1_R19    -1.433e-7
    W2 HG2_R1   -1.4585e-7
    W2 HG2_R3   -1.4625e-7
    W2 HG2_R5   -1.4705e-7
    W2 HG2_R7    -1.477e-7
    W2 HG2_R9   -1.4815e-7
    W2 HG2_R11   -1.4775e-7
    W2 HG2_R13   -1.4645e-7
    W2 HG2_R15    -1.444e-7
    W2 HG2_R17    -1.433e-7
    W2 HG2_R19   -1.4235e-7
    W2 VG1_R1    -1.612e-6
    W2 VG1_R3    -1.617e-6
    W2 VG1_R5   -1.6304e-6
    W2 VG1_R7   -1.6566e-6
    W2 VG1_R9   -1.6372e-6
    W2 VG1_R11    -1.633e-6
    W2 VG1_R13   -1.6352e-6
    W2 VG1_R15    -1.678e-6
    W2 VG1_R17   -1.6036e-6
    W2 VG1_R19   -1.5734e-6
    W2 WL_L1_R07_C27 -0.0001167  
    W2 WL_L1_R11_C27 -0.0001174  
    W2 WL_L1_R15_C27 -0.00011262 
    W2 GREATER_SUM 1.          
    W3 OBJROW 1.          
    W3 HG1_R1   -1.4485e-7
    W3 HG1_R3   -1.4605e-7
    W3 HG1_R5    -1.484e-7
    W3 HG1_R7   -1.5095e-7
    W3 HG1_R9   -1.5225e-7
    W3 HG1_R11   -1.5175e-7
    W3 HG1_R13    -1.491e-7
    W3 HG1_R15    -1.456e-7
    W3 HG1_R17   -1.4195e-7
    W3 HG1_R19   -1.3965e-7
    W3 HG2_R1   -1.4385e-7
    W3 HG2_R3   -1.4505e-7
    W3 HG2_R5   -1.4735e-7
    W3 HG2_R7    -1.497e-7
    W3 HG2_R9    -1.512e-7
    W3 HG2_R11   -1.5065e-7
    W3 HG2_R13     -1.48e-7
    W3 HG2_R15     -1.44e-7
    W3 HG2_R17   -1.4085e-7
    W3 HG2_R19    -1.387e-7
    W3 VG1_R1   -1.5946e-6
    W3 VG1_R3    -1.608e-6
    W3 VG1_R5   -1.6382e-6
    W3 VG1_R7   -1.6834e-6
    W3 VG1_R9    -1.676e-6
    W3 VG1_R11   -1.6698e-6
    W3 VG1_R13   -1.6574e-6
    W3 VG1_R15   -1.6772e-6
    W3 VG1_R17   -1.5808e-6
    W3 VG1_R19    -1.537e-6
    W3 WL_L1_R07_C27 -0.00011832 
    W3 WL_L1_R11_C27 -0.00011986 
    W3 WL_L1_R15_C27 -0.00011224 
    W3 GREATER_SUM 1.          
    W4 OBJROW 1.          
    W4 HG1_R1   -1.3625e-7
    W4 HG1_R3    -1.375e-7
    W4 HG1_R5    -1.403e-7
    W4 HG1_R7   -1.4415e-7
    W4 HG1_R9    -1.479e-7
    W4 HG1_R11    -1.509e-7
    W4 HG1_R13   -1.5245e-7
    W4 HG1_R15   -1.5285e-7
    W4 HG1_R17    -1.519e-7
    W4 HG1_R19    -1.512e-7
    W4 HG2_R1    -1.353e-7
    W4 HG2_R3    -1.366e-7
    W4 HG2_R5   -1.3935e-7
    W4 HG2_R7   -1.4295e-7
    W4 HG2_R9    -1.469e-7
    W4 HG2_R11    -1.499e-7
    W4 HG2_R13    -1.514e-7
    W4 HG2_R15    -1.511e-7
    W4 HG2_R17   -1.5085e-7
    W4 HG2_R19    -1.502e-7
    W4 VG1_R1   -1.4956e-6
    W4 VG1_R3   -1.5104e-6
    W4 VG1_R5   -1.5454e-6
    W4 VG1_R7   -1.6036e-6
    W4 VG1_R9   -1.6234e-6
    W4 VG1_R11    -1.657e-6
    W4 VG1_R13     -1.69e-6
    W4 VG1_R15   -1.7552e-6
    W4 VG1_R17    -1.688e-6
    W4 VG1_R19   -1.6602e-6
    W4 WL_L1_R07_C27 -0.0001129  
    W4 WL_L1_R11_C27 -0.0001192  
    W4 WL_L1_R15_C27 -0.0001179  
    W4 GREATER_SUM 1.          
    W5 OBJROW 1.          
    W5 HG1_R1   -2.7015e-7
    W5 HG1_R3   -2.7185e-7
    W5 HG1_R5    -2.758e-7
    W5 HG1_R7    -2.817e-7
    W5 HG1_R9   -2.8855e-7
    W5 HG1_R11   -2.9605e-7
    W5 HG1_R13    -3.031e-7
    W5 HG1_R15    -3.096e-7
    W5 HG1_R17   -3.1365e-7
    W5 HG1_R19    -3.163e-7
    W5 HG2_R1    -2.683e-7
    W5 HG2_R3   -2.7005e-7
    W5 HG2_R5    -2.739e-7
    W5 HG2_R7    -2.794e-7
    W5 HG2_R9   -2.8665e-7
    W5 HG2_R11   -2.9405e-7
    W5 HG2_R13   -3.0095e-7
    W5 HG2_R15    -3.061e-7
    W5 HG2_R17   -3.1145e-7
    W5 HG2_R19    -3.142e-7
    W5 VG1_R1   -2.9624e-6
    W5 VG1_R3   -2.9824e-6
    W5 VG1_R5   -3.0338e-6
    W5 VG1_R7   -3.1302e-6
    W5 VG1_R9   -3.1636e-6
    W5 VG1_R11   -3.2462e-6
    W5 VG1_R13    -3.356e-6
    W5 VG1_R15   -3.5516e-6
    W5 VG1_R17   -3.4802e-6
    W5 VG1_R19   -3.4672e-6
    W5 WL_L1_R07_C27 -0.00022056 
    W5 WL_L1_R11_C27 -0.0002336  
    W5 WL_L1_R15_C27 -0.00023888 
    W5 GREATER_SUM 1.          
    I1 OBJROW  -1.        
    I1 HG1_R1     1.809e-7
    I1 HG1_R3     2.459e-7
    I1 HG1_R5     4.906e-7
    I1 HG1_R7    1.1264e-6
    I1 HG1_R9    4.7835e-7
    I1 HG1_R11     2.174e-7
    I1 HG1_R13    1.2485e-7
    I1 HG1_R15  8.669999e-8
    I1 HG1_R17  6.904999e-8
    I1 HG1_R19      6.14e-8
    I1 HG2_R1     1.797e-7
    I1 HG2_R3    2.4435e-7
    I1 HG2_R5     4.873e-7
    I1 HG2_R7    1.0863e-6
    I1 HG2_R9     4.752e-7
    I1 HG2_R11      2.16e-7
    I1 HG2_R13      1.24e-7
    I1 HG2_R15  8.579999e-8
    I1 HG2_R17  6.849999e-8
    I1 HG2_R19     6.095e-8
    I1 VG1_R1    1.9968e-6
    I1 VG1_R3    2.7204e-6
    I1 VG1_R5    5.4622e-6
    I1 VG1_R7   1.24782e-5
    I1 VG1_R9    5.3098e-6
    I1 VG1_R11    2.4044e-6
    I1 VG1_R13    1.3906e-6
    I1 VG1_R15  9.993999e-7
    I1 VG1_R17  7.689999e-7
    I1 VG1_R19  6.751999e-7
    I1 WL_L1_R07_C27 0.0014678399
    I1 WL_L1_R11_C27 0.00015612  
    I1 WL_L1_R15_C27  6.495999e-5
    I1 GREATER_SUM  -1.        
    I2 OBJROW  -1.        
    I2 HG1_R1     8.385e-8
    I2 HG1_R3     9.485e-8
    I2 HG1_R5     1.286e-7
    I2 HG1_R7    2.1745e-7
    I2 HG1_R9    4.7455e-7
    I2 HG1_R11   1.11635e-6
    I2 HG1_R13     4.755e-7
    I2 HG1_R15       2.2e-7
    I2 HG1_R17     1.331e-7
    I2 HG1_R19     1.026e-7
    I2 HG2_R1      8.33e-8
    I2 HG2_R3     9.425e-8
    I2 HG2_R5     1.277e-7
    I2 HG2_R7     2.158e-7
    I2 HG2_R9    4.7155e-7
    I2 HG2_R11   1.07935e-6
    I2 HG2_R13     4.724e-7
    I2 HG2_R15     2.178e-7
    I2 HG2_R17     1.321e-7
    I2 HG2_R19     1.019e-7
    I2 VG1_R1     9.234e-7
    I2 VG1_R3    1.0452e-6
    I2 VG1_R5    1.4228e-6
    I2 VG1_R7    2.4368e-6
    I2 VG1_R9    5.2668e-6
    I2 VG1_R11   1.22028e-5
    I2 VG1_R13    5.3284e-6
    I2 VG1_R15     2.546e-6
    I2 VG1_R17    1.4858e-6
    I2 VG1_R19    1.1304e-6
    I2 WL_L1_R07_C27 0.00015508  
    I2 WL_L1_R11_C27 0.00147272  
    I2 WL_L1_R15_C27 0.00015462  
    I2 GREATER_SUM  -1.        
    I3 OBJROW  -1.        
    I3 HG1_R1     5.545e-8
    I3 HG1_R3      5.88e-8
    I3 HG1_R5      6.79e-8
    I3 HG1_R7     8.665e-8
    I3 HG1_R9    1.2605e-7
    I3 HG1_R11       2.2e-7
    I3 HG1_R13    4.8285e-7
    I3 HG1_R15   1.13765e-6
    I3 HG1_R17     5.043e-7
    I3 HG1_R19    2.7225e-7
    I3 HG2_R1     5.505e-8
    I3 HG2_R3      5.84e-8
    I3 HG2_R5      6.74e-8
    I3 HG2_R7     8.595e-8
    I3 HG2_R9     1.252e-7
    I3 HG2_R11     2.185e-7
    I3 HG2_R13     4.794e-7
    I3 HG2_R15   1.09095e-6
    I3 HG2_R17     5.006e-7
    I3 HG2_R19     2.705e-7
    I3 VG1_R1       6.1e-7
    I3 VG1_R3     6.472e-7
    I3 VG1_R5     7.494e-7
    I3 VG1_R7     9.674e-7
    I3 VG1_R9    1.3902e-6
    I3 VG1_R11     2.433e-6
    I3 VG1_R13     5.414e-6
    I3 VG1_R15   1.30156e-5
    I3 VG1_R17    5.6662e-6
    I3 VG1_R19     3.012e-6
    I3 WL_L1_R07_C27     6.596e-5
    I3 WL_L1_R11_C27 0.0001581   
    I3 WL_L1_R15_C27 0.00144872  
    I3 GREATER_SUM  -1.        
RHS
    RHS HG1_R1 -0.0023738  
    RHS HG1_R3 -0.0023571  
    RHS HG1_R5 -0.0023182  
    RHS HG1_R7 -0.0022587  
    RHS HG1_R9 -0.002185675
    RHS HG1_R11 -0.002116375
    RHS HG1_R13 -0.0020761  
    RHS HG1_R15 -0.002078025
    RHS HG1_R17 -0.002106   
    RHS HG1_R19 -0.002132175
    RHS HG2_R1 -0.002246525
    RHS HG2_R3 -0.00223    
    RHS HG2_R5 -0.002191525
    RHS HG2_R7 -0.002132675
    RHS HG2_R9 -0.002060425
    RHS HG2_R11 -0.001991875
    RHS HG2_R13 -0.001952   
    RHS HG2_R15 -0.0019539  
    RHS HG2_R17 -0.00198155 
    RHS HG2_R19 -0.00200745 
    RHS VG1_R1 -0.053533   
    RHS VG1_R3 -0.053335   
    RHS VG1_R5 -0.052875   
    RHS VG1_R7 -0.052172   
    RHS VG1_R9 -0.051312   
    RHS VG1_R11 -0.050499   
    RHS VG1_R13 -0.050027   
    RHS VG1_R15 -0.050048   
    RHS VG1_R17 -0.050374   
    RHS VG1_R19 -0.050681   
    RHS WL_L1_R07_C27 0.37103     
    RHS WL_L1_R11_C27 0.48707     
    RHS WL_L1_R15_C27 0.5169      
BOUNDS
 UP BOUND W1 10000.      
 UP BOUND W2 10000.      
 UP BOUND W3 10000.      
 UP BOUND W4 10000.      
 UP BOUND W5 10000.      
 UP BOUND I1 10000.      
 UP BOUND I2 10000.      
 UP BOUND I3 10000.      
ENDATA
